n_res = 4;
rcap = [13, 15, 108, 86];
rtype = [1, 1, 2, 2];
n_tasks = 16;
modes = [ {1, 2, 3}, {4, 5, 6}, {7, 8, 9}, {10, 11, 12}, {13, 14, 15}, {16, 17, 18}, {19, 20, 21}, {22, 23, 24}, {25, 26, 27}, {28, 29, 30}, {31, 32, 33}, {34, 35, 36}, {37, 38, 39}, {40, 41, 42}, {43, 44, 45}, {46, 47, 48} ];
succ = [ {16}, {8, 9, 12}, {4}, {5, 7, 12}, {6, 9, 13}, {8, 10, 11}, {8, 10, 11}, {14, 15}, {11, 14}, {14, 15}, {16}, {13}, {15, 16}, {}, {}, {} ];
n_opt = 48;
dur = [4, 9, 9, 2, 2, 8, 3, 7, 8, 4, 7, 10, 3, 5, 8, 3, 4, 5, 1, 3, 5, 3, 7, 10, 3, 5, 10, 1, 1, 2, 4, 5, 9, 5, 7, 10, 1, 2, 7, 9, 10, 10, 1, 2, 7, 4, 10, 10];
rreq = [| 10,  9,  8,  6,  6,  5, 10,  8,  7,  8,  6,  5,  9,  7,  6,  7,  6,  2,  8,  8,  7,  8,  6,  4,  9,  8,  8,  8,  7,  7,  7,  7,  6, 10,  7,  5, 10,  9,  8,  8,  8,  6,  9,  7,  7,  5,  1,  4
        |  9,  6,  7,  7,  8,  7,  5,  4,  4,  6,  4,  2,  6,  3,  2,  4,  3,  2,  9,  4,  2, 10, 10, 10,  8,  5,  5,  8,  8,  6, 10,  8,  7,  7,  7,  6,  6,  4,  2,  3,  3,  3,  7,  4,  2,  7,  7,  7
        |  8,  7,  6,  7,  7,  7,  7,  7,  6,  3,  3,  2,  4,  2,  2,  7,  4,  1,  9,  9,  9,  4,  4,  4,  9,  9,  9,  4,  7,  4,  3,  3,  3,  8,  8,  7,  7,  7,  5,  9,  7,  7,  7,  3,  1,  9,  9,  8
        |  5,  5,  3,  4,  3,  1,  3,  2,  1,  2,  2,  1,  3,  3,  2,  4,  3,  3,  8,  7,  7,  7,  4,  3,  3,  3,  2,  7,  8,  6,  5,  5,  4,  6,  5,  5,  7,  7,  7,  8,  7,  8,  6,  6,  6,  7,  5,  3 |];
